#MD run for GO at 300 K with calculation of water MSD

units           real
atom_style      charge

boundary        p p p

read_data       GO_sandwich_water1000_allO_relaxed2.data
group           water type 4 5 # Oxygen (type 4) and hydrogen (type 5) atoms from water molecules
group           go type 1 2 3 # Carbon (type 1), oxygen (type 2) and hydrogen (type 3) atoms from GO
group           water_ox type 4 # additional group for Oxygen from H2O for the ease of MSD calcualtion


#Initialization of ReaxFF potential
pair_style      reax/c NULL safezone 3 mincap 200
pair_coeff      * * ffield.reax.CHO2016 C H O O H
fix             0 all qeq/reax 1 0.0 10.0 1.0e-6 reax/c

#Energy component calculation (logged via thermo_style command)
compute         reax all pair reax/c
variable        eb      equal c_reax[1]
variable        ea      equal c_reax[2]
variable        elp      equal c_reax[3]
variable        emol      equal c_reax[4]
variable        ev      equal c_reax[5]
variable        epen      equal c_reax[6]
variable        ecoa      equal c_reax[7]
variable        ehb      equal c_reax[8]
variable        et      equal c_reax[9]
variable        eco      equal c_reax[10]
variable        ew      equal c_reax[11]
variable        ep      equal c_reax[12]

thermo_style    custom  atoms step time cpu temp pe pxx pyy pzz ke etotal press vol density v_eb v_ea v_elp v_emol v_ev v_epen v_ecoa v_ehb v_et v_eco v_ew v_ep 
thermo          100
thermo_modify   flush yes
timestep        0.1

#Dumping atom coordinates separately for each group for the ease of analysis
dump            1 all cfg 500 ./cfg/p2000.*.cfg mass type xs ys zs
dump            2 water cfg 500 ./cfg/water2000.*.cfg mass type xs ys zs
dump            4 go cfg 500 ./cfg/go2000.*.cfg mass type xs ys zs
dump_modify     1 element C H O O H
dump_modify     2 element C H O O H
dump_modify     4 element C H O O H
dump            3 all custom 500  ./pos/c2000.*.pos id type x y z vx vy vz
dump            5 water_ox custom 500 ./pos/water_ox.*.pos id type x y z vx vy vz
restart         10000 ./restart/rest.*.restart

#Additional relaxation for 20 ps at 300 K
fix             2 all npt temp 300 300 10 x 0 0 50 y 0 0 50 z 0 0 50
run		200000

#Main MD run for 200 ps at 300 K with calculation of mean squared displacements for oxygen atoms in water molecules
compute         msd water_ox msd
compute         dispAt water_ox displace/atom
thermo_style    custom  atoms step time cpu temp pe pxx pyy pzz ke etotal press vol density v_eb v_ea v_elp v_emol v_ev v_epen v_ecoa v_ehb v_et v_eco v_ew v_ep  c_msd[1] c_msd[2] c_msd[3] c_msd[4] lz
thermo          100

run             2000000
